c File: instances/36_0.45_1.col
c
c Description: Random graph of size 36 vertices and P(0.44999999999999996) of edges between any two vertices.
p col 36 630
e 1 4
e 1 8
e 1 10
e 1 14
e 1 16
e 1 17
e 1 19
e 1 26
e 1 27
e 1 28
e 1 30
e 1 32
e 1 33
e 1 35
e 1 36
e 2 5
e 2 7
e 2 12
e 2 14
e 2 16
e 2 17
e 2 18
e 2 19
e 2 20
e 2 21
e 2 22
e 2 25
e 2 26
e 2 27
e 2 28
e 2 29
e 2 31
e 2 33
e 2 36
e 3 14
e 3 16
e 3 18
e 3 21
e 3 22
e 3 23
e 3 30
e 3 33
e 3 34
e 3 35
e 3 36
e 4 6
e 4 7
e 4 8
e 4 12
e 4 15
e 4 16
e 4 19
e 4 21
e 4 24
e 4 25
e 4 28
e 4 30
e 4 35
e 4 36
e 5 9
e 5 11
e 5 16
e 5 18
e 5 21
e 5 22
e 5 23
e 5 27
e 5 29
e 5 30
e 5 33
e 5 34
e 5 36
e 6 9
e 6 10
e 6 11
e 6 17
e 6 19
e 6 22
e 6 26
e 6 27
e 6 30
e 6 31
e 7 9
e 7 10
e 7 13
e 7 20
e 7 22
e 7 27
e 7 29
e 7 30
e 7 32
e 7 33
e 7 34
e 8 9
e 8 12
e 8 14
e 8 15
e 8 16
e 8 17
e 8 18
e 8 26
e 8 27
e 8 28
e 8 29
e 8 32
e 9 12
e 9 13
e 9 15
e 9 17
e 9 19
e 9 25
e 9 26
e 9 28
e 9 29
e 9 34
e 9 36
e 10 15
e 10 19
e 10 23
e 10 24
e 10 26
e 10 27
e 10 28
e 10 31
e 10 35
e 10 36
e 11 17
e 11 19
e 11 21
e 11 22
e 11 23
e 11 25
e 11 27
e 11 29
e 11 32
e 11 33
e 11 35
e 11 36
e 12 13
e 12 15
e 12 18
e 12 20
e 12 21
e 12 22
e 12 23
e 12 25
e 12 27
e 12 29
e 12 30
e 12 34
e 12 36
e 13 14
e 13 15
e 13 16
e 13 19
e 13 20
e 13 23
e 13 24
e 13 26
e 13 30
e 13 31
e 13 35
e 13 36
e 14 16
e 14 17
e 14 18
e 14 19
e 14 25
e 14 26
e 14 27
e 14 30
e 14 31
e 14 34
e 14 36
e 15 17
e 15 18
e 15 22
e 15 23
e 15 29
e 15 30
e 15 31
e 15 35
e 16 17
e 16 18
e 16 28
e 16 31
e 16 32
e 16 33
e 17 18
e 17 19
e 17 20
e 17 24
e 17 25
e 17 26
e 17 28
e 17 31
e 17 32
e 17 33
e 17 34
e 17 36
e 18 20
e 18 24
e 18 25
e 18 26
e 18 27
e 18 28
e 18 29
e 18 30
e 18 32
e 18 35
e 18 36
e 19 20
e 19 22
e 19 24
e 19 26
e 19 28
e 19 31
e 20 21
e 20 23
e 20 24
e 20 27
e 20 30
e 20 32
e 20 33
e 20 36
e 21 23
e 21 24
e 21 26
e 21 28
e 21 31
e 21 32
e 21 34
e 21 36
e 22 23
e 22 24
e 23 24
e 23 25
e 23 26
e 23 29
e 23 30
e 23 31
e 23 35
e 24 27
e 24 28
e 24 29
e 24 30
e 24 34
e 25 28
e 25 30
e 25 31
e 26 27
e 26 29
e 26 33
e 26 36
e 27 28
e 27 29
e 27 30
e 27 33
e 27 36
e 28 31
e 28 33
e 28 34
e 29 31
e 29 32
e 29 34
e 29 36
e 30 33
e 30 35
e 31 32
e 32 34
e 33 34
e 34 36